86 29 
1 50 
79 75 
78 32 
24 2 
37 39 
45 67 
78 15 
0 71 
57 12 
12 75 
34 38 
33 50 
52 1 
53 80 
95 39 
9 48 
41 40 
24 71 
72 0 
26 61 
39 23 
29 69 
38 81 
40 48 
45 52 
23 79 
42 8 
82 95 
9 35 
27 56 
26 36 
4 19 
76 80 
90 0 
81 68 
61 72 
92 42 
42 82 
76 34 
30 21 
39 5 
53 81 
13 35 
28 74 
70 7 
30 48 
43 87 
67 71 
67 9 
